c --- [ banner ] -------------------------------------------------------------
c 
c CaDiCaL Radically Simplified CDCL SAT Solver
c Copyright (c) 2016-2021 A. Biere, M. Fleury, N. Froleyks
c 
c Version 1.5.2 9c38a080b32c28d805e8e6ca21849856b0cda605
c g++ (Ubuntu 7.5.0-3ubuntu1~18.04) 7.5.0 -Wall -Wextra -O3 -DNDEBUG
c Wed Feb 16 23:15:36 EST 2022 Linux fac-vanhoeve01 5.4.0-99-generic x86_64
c 
c --- [ limit ] --------------------------------------------------------------
c 
c setting time limit to 600 seconds real time (due to '-t 600')
c setting conflict limit to 1000000000 conflicts (due to '1000000000')
c 
c --- [ parsing input ] ------------------------------------------------------
c 
c reading DIMACS file from 'ddfwcnfs/wap04a.col_40.cnf'
c opening file to read 'ddfwcnfs/wap04a.col_40.cnf'
c found 'p cnf 209240 11517191' header
c parsed 11517191 clauses in 6.99 seconds process time
c closing file 'ddfwcnfs/wap04a.col_40.cnf'
c after reading 199732645 bytes 190.5 MB
c 
c --- [ options ] ------------------------------------------------------------
c 
c all options are set to their default value
c 
c --- [ solving ] ------------------------------------------------------------
c 
c time measured in process time since initialization
c 
c  seconds   reductions  redundant   irredundant
c          MB    restarts       trail         variables
c           level   conflicts       glue            remaining
c 
c *  6.99 997  0 0   0    0    0  0% 0 11515591 207640 99%
c {  7.03 1000  0 0   0    0    0  0% 0 11515591 207640 99%
c -  9.30 1000 40 1   0  301  103  2% 36 11515591 207640 99%
c }  9.53 1000 40 1   0 1000  372  2% 36 11515591 207640 99%
c [  9.53 1000  0 1   0 1000  372  0% 0 11515591 207640 99%
c O  9.53 1000 55 1   0 1005  376  2% 37 11515591 207640 99%
c - 15.81 1265 43 2   1 2137  944  2% 39 11515591 207640 99%
c ] 15.96 1265 45 2   1 3002 1590  2% 40 11515591 207640 99%
c { 15.96 1265 40 2   1 3002 1590  2% 36 11515591 207640 99%
c F 15.96 1265 40 2   1 3009 1596  2% 36 11515591 207640 99%
c - 20.47 1265 45 3   9 4892 2265  3% 38 11515591 207640 99%
c # 31.20 1258 44 3  12 6010 3012  3% 38 11515591 207640 99%
c } 31.33 1258 50 3  12 7002 3813  3% 38 11515591 207640 99%
c [ 31.33 1258 45 3  12 7002 3813  2% 40 11515591 207640 99%
c - 36.02 1259 47 4  13 8565 3596  3% 41 11515591 207640 99%
c I 36.30 1259 53 4  14 10011 4698  3% 41 11515591 207640 99%
c s 40.69 1259 5294 4  16 11587 5555  9% 50 11515591 207640 99%
c e 62.99 1260 5294 4  16 11587 1703  9% 50 10703141 198403 95%
c - 70.43 1257 9355 5  16 13159 2425 15% 53 10703141 198403 95%
c ] 81.40 1257 14060 5  17 15002 3979 21% 66 10703141 198403 95%
c 
c  seconds    reductions   redundant    irredundant
c          MB     restarts        trail          variables
c            level    conflicts       glue             remaining
c 
c { 81.40 1257 50 5  17 15002 3979  3% 38 10703141 198403 95%
c B 81.46 1257 89 5  17 15012 3989  3% 38 10703141 198403 95%
c - 86.13 1258 229 6  22 18612 4685  3% 34 10703141 198403 95%
c W 90.84 1258 188 6  22 21015 6464  3% 34 10703141 198403 95%
c - 95.46 1257 150 7  26 24976 5923  3% 33 10703141 198403 95%
c F 95.88 1257 131 7  26 28018 8038  3% 32 10703141 198403 95%
c } 106.59 1257 116 7  28 31002 10191  3% 32 10703141 198403 95%
c [ 106.59 1257 14060 7  28 31002 10191 21% 66 10703141 198403 95%
c - 111.06 1258 12429 8  28 32247 7251 19% 62 10703141 198403 95%
c s 114.43 1258 10169 8  30 34602 8319 17% 59 10703141 198403 95%
c s 129.23 1258 10169 8  30 34602 8109 17% 59 10703141 198403 95%
c ^ 132.30 1258 10169 8  30 34602 8109 17% 59 10703141 198403 95%
c B 132.53 1258 9146 8  31 36021 9182 15% 58 10703141 198403 95%
c - 139.22 1259 10895 9  34 40426 8931 19% 66 10703141 198403 95%
c W 146.70 1259 9656 9  35 45022 12453 22% 80 10703141 198403 95%
c - 152.37 1260 9822 10  36 49515 9358 28% 80 10703141 198403 95%
c O 164.96 1260 8236 10  37 55025 13498 25% 82 10703141 198403 95%
c - 170.12 1259 7112 11  41 59512 9898 22% 76 10703141 198403 95%
c ] 170.57 1259 6408 11  43 63003 12224 20% 73 10703141 198403 95%
c { 170.57 1259 116 11  43 63003 12224  3% 32 10703141 198403 95%
c 
c  seconds      reductions     redundant    irredundant
c           MB       restarts         trail          variables
c              level     conflicts        glue             remaining
c 
c B 170.87 1259 111 11  43 66027 14803  3% 31 10703141 198403 95%
c s 172.08 1259 125 11 846 69124 15578  4% 32 10703141 198403 95%
c s 192.49 1259 125 11 846 69124 15378  4% 32 10703141 198403 95%
c ^ 195.30 1259 125 11 846 69124 15378  4% 32 10703141 198403 95%
c - 200.28 1258 121 12 1171 70421 8991  4% 32 10703141 198403 95%
c W 218.06 1258 101 12 2924 78028 11323  4% 33 10703141 198403 95%
c - 223.65 1258 94 13 3734 82238 6238  4% 34 10703141 198403 95%
c # 225.45 1258 84 13 4582 91030 9840  4% 35 10703141 198403 95%
c - 230.65 1258 80 14 4654 94964 7366  4% 35 10703141 198403 95%
c B 244.04 1258 71 14 4750 105031 13425  4% 35 10703141 198403 95%
c - 248.91 1258 70 15 4916 108597 9591  4% 35 10703141 198403 95%
c s 250.24 1258 66 15 5090 115154 12313  4% 36 10703141 198403 95%
c s 268.81 1258 66 15 5090 115154 10860  4% 36 10703141 198403 95%
c ^ 270.79 1258 66 15 5090 115154 10860  4% 36 10703141 198403 95%
c W 276.36 1258 64 15 5263 120033 13064  4% 36 10703141 198403 95%
c - 280.12 1258 63 16 5313 123139 8855  4% 36 10703141 198403 95%
c } 280.47 1258 61 16 5362 127003 10692  4% 36 10703141 198403 95%
c [ 280.47 1258 6408 16 5362 127003 10692 20% 73 10703141 198403 95%
c B 282.55 1258 8412 16 5367 136034 17713 23% 86 10703141 198403 95%
c - 285.94 1262 7903 17 5368 138591 12882 22% 84 10703141 198403 95%
c 
c  seconds       reductions       redundant    irredundant
c           MB        restarts           trail          variables
c              level       conflicts         glue             remaining
c 
c W 301.17 1262 5765 17 5371 153036 21850 17% 73 10703141 198403 95%
c - 305.05 1261 7422 18 5371 154952 14188 19% 80 10703141 198403 95%
c I 311.98 1261 15488 18 5374 171044 27848 26% 144 10703141 198403 95%
c - 315.78 1279 15673 19 5375 172222 18514 26% 142 10703141 198403 95%
c s 316.25 1279 15689 19 5375 172690 18203 26% 142 10703141 198403 95%
c w 324.33 1279 15689 19 5375 172690 18203 26% 142 10703141 198403 95%
c s 333.20 1279 15689 19 5375 172690 18017 26% 142 10703141 198403 95%
c ^ 335.24 1279 15689 19 5375 172690 18017 26% 142 10703141 198403 95%
c B 347.90 1279 12980 19 5385 190048 32320 25% 133 10703141 198403 95%
c - 351.39 1265 12984 20 5385 190400 19502 25% 133 10703141 198403 95%
c - 358.82 1266 10977 21 5393 209485 20001 25% 133 10703141 198403 95%
c W 365.80 1266 10904 21 5393 210049 20468 25% 133 10703141 198403 95%
c - 381.67 1266 8761 22 5401 229482 20906 23% 130 10703141 198403 95%
c O 381.87 1266 8606 22 5401 231050 22043 24% 129 10703141 198403 95%
c s 383.61 1266 7514 22 5402 241732 29486 21% 118 10703141 198403 95%
c w 391.95 1266 7514 22 5402 241732 29482 21% 118 10703141 198403 95%
c s 401.29 1266 7514 22 5402 241732 27979 21% 118 10703141 198403 95%
c ^ 403.40 1266 7514 22 5402 241732 27979 21% 118 10703141 198403 95%
c - 408.05 1261 6753 23 5402 250385 19307 19% 111 10703141 198403 95%
c B 408.47 1261 6538 23 5403 253054 21401 18% 108 10703141 198403 95%
c 
c  seconds       reductions       redundant     irredundant
c           MB        restarts           trail           variables
c              level       conflicts          glue             remaining
c 
c ] 408.73 1261 7587 23 5403 255004 22879 19% 108 10703141 198403 95%
c { 408.73 1261 61 23 5403 255004 22879  4% 36 10703141 198403 95%
c - 413.82 1260 62 24 9710 272199 15126  4% 41 10703141 198403 95%
c F 422.88 1260 62 24 10668 276056 16524  4% 42 10703141 198403 95%
c - 428.49 1260 57 25 10674 294921 18565  4% 41 10703141 198403 95%
c B 429.10 1260 56 25 10674 300061 22152  3% 41 10703141 198403 95%
c - 434.90 1263 97 26 12527 318551 23572  4% 43 10703141 198403 95%
c s 435.82 1263 104 26 12527 322284 25863  4% 42 10703141 198403 95%
c w 444.04 1263 104 26 12527 322284 25854  4% 42 10703141 198403 95%
c s 453.39 1263 104 26 12527 322284 25739  4% 42 10703141 198403 95%
c W 464.27 1263 109 26 12527 325063 28010  4% 42 10703141 198403 95%
c - 478.41 1262 98 27 12543 343090 24763  3% 42 10703141 198403 95%
c # 479.19 1262 92 27 12543 351066 29638  3% 41 10703141 198403 95%
c - 484.35 1262 85 28 12543 368537 26438  3% 40 10703141 198403 95%
c B 485.47 1262 82 28 12543 378068 34175  3% 39 10703141 198403 95%
c - 499.55 1262 80 29 12597 394893 28218  3% 39 10703141 198403 95%
c W 511.02 1262 76 29 12659 406069 35950  3% 39 10703141 198403 95%
c - 516.29 1262 70 30 12707 422159 25289  3% 39 10703141 198403 95%
c F 517.56 1262 67 30 12782 435072 32779  3% 39 10703141 198403 95%
c - 522.24 1262 67 31 12784 450333 26574  3% 38 10703141 198403 95%
c 
c  seconds     reductions        redundant    irredundant
c           MB       restarts           trail          variables
c             level       conflicts         glue             remaining
c 
c B 532.31 1262 63 31 12825 465074 36750  3% 38 10703141 198403 95%
c - 537.51 1262 68 32 12909 479416 28798  4% 38 10703141 198403 95%
c W 551.28 1262 65 32 13021 496075 41872  4% 38 10703141 198403 95%
c - 556.47 1263 63 33 13038 509409 31997  4% 38 10703141 198403 95%
c } 556.69 1263 62 33 13040 511004 33305  4% 38 10703141 198403 95%
c [ 556.69 1263 7587 33 13040 511004 33305 19% 108 10703141 198403 95%
c W 579.65 1263 6435 33 13040 528076 46378 17% 101 10703141 198403 95%
c - 584.25 1265 5589 34 13041 540312 31113 15% 96 10703141 198403 95%
c I 588.73 1265 5817 34 13054 561077 47088 16% 101 10703141 198403 95%
c - 595.12 1273 6352 35 13055 572123 33158 18% 108 10703141 198403 95%
c B 598.31 1273 5689 35 13069 595078 49952 18% 105 10703141 198403 95%
c ] 599.92 1273 6728 35 13070 599772 53810 19% 108 10703141 198403 95%
c ? 599.92 1273 6728 35 13070 599772 53810 19% 108 10703141 198403 95%
c 
c --- [ result ] -------------------------------------------------------------
c 
c UNKNOWN
c 
c --- [ run-time profiling ] -------------------------------------------------
c 
c process time taken by individual solving procedures
c (percentage relative to process time for solving)
c 
c       337.97   57.00% search
c       254.96   43.00% simplify
c       134.98   22.76% stable
c       126.31   21.30% unstable
c        76.64   12.93% walk
c        63.49   10.71% ternary
c        58.29    9.83% elim
c        47.99    8.09% vivify
c        11.74    1.98% probe
c        10.65    1.80% subsume
c         6.99    1.18% parse
c         0.05    0.01% lucky
c   =================================
c       592.94   98.84% solve
c 
c last line shows process time for solving
c (percentage relative to total process time)
c 
c --- [ statistics ] ---------------------------------------------------------
c 
c chronological:            102713        17.13 %  of conflicts
c conflicts:                599772      1011.53    per second
c decisions:               2881507      4859.73    per second
c eliminated:                 9237         4.41 %  of all variables
c fixed:                      1600         0.76 %  of all variables
c learned:                  594047        99.05 %  per conflict
c learned_lits:           84120348       100.00 %  learned literals
c minimized:                     0         0.00 %  learned literals
c shrunken:               33361791        39.66 %  learned literals
c minishrunken:            1782212         2.12 %  learned literals
c propagations:          216292257         0.36 M  per second
c reduced:                  355055        59.20 %  per conflict
c rephased:                     34     17640.35    interval
c restarts:                  13070        45.89    interval
c stabilizing:                   5        43.15 %  of conflicts
c subsumed:                 181312         0.74 %  of all clauses
c strengthened:              19278         0.08 %  of all clauses
c vivified:                     28         0.00 %  of all clauses
c walked:                       10     59977.20    interval
c weakened:                 975519         2.70    average size
c 
c seconds are measured in process time for solving
c 
c --- [ resources ] ----------------------------------------------------------
c 
c total process time since initialization:       599.92    seconds
c total real time since initialization:          600.00    seconds
c maximum resident set size of process:         1617.05    MB
c 
c --- [ shutting down ] ------------------------------------------------------
c 
c exit 0
